c This is QMaxSAT 2017 based on 14.07
c This is Glucose 3.0
c This is MiniSat 2.2.0
c WARNING: for repeatability, setting FPU to use double precision
c card = mrwto, comp = 0, pmodel = 0, narr = 8, mct = 29, verb = 0
cr firstCPXsol 0 0 0
c top = 167313
c |  Number of variables:    2592                                             |
c |  Number of clauses:      76134                                            |
c |  Weight of hard clauses: 167313                                           |
c |  Number of soft clauses: 9632                                             |
c |  Number of unit soft clauses: 0                                           |
c |  Maximum Cardinality (by unit): 1893456      (0           )               |
c last restart ## conflicts  :  2 663 
o 2508 | cpuTime 0.022728 s
c Sum of weights = 236682
c A number of soft clauses remained = 1204
c MRWTO encoding for Pseudo-Boolean Constraints
c sizeMax=2508
c No.0 Divisor=14	generated by pow1
c No.1 Divisor=14	generated by pow1
c No.2 Divisor=14	generated by pow1
c p0= 14	p1= 14	p2= 14	
c number of digits = 4
c linkingVar[0].size = 14, linkingVar[1].size = 14, linkingVar[2].size = 13, linkingVar[3].size = 1, 
c Pseudo-Boolean Constraints: 28967 variables and 319308 clauses
c Sum of weights = 236682
c A number of soft clauses remained = 1204
c MRWTO encoding for Pseudo-Boolean Constraints
c sizeMax=2508
c No.0 Divisor=14	generated by pow1
c No.1 Divisor=14	generated by pow1
c No.2 Divisor=14	generated by pow1
c p0= 14	p1= 14	p2= 14	
c number of digits = 4
c linkingVar[0].size = 14, linkingVar[1].size = 14, linkingVar[2].size = 13, linkingVar[3].size = 1, 
c Pseudo-Boolean Constraints: 28967 variables and 319308 clauses
c Sum of weights = 236682
c A number of soft clauses remained = 1204
c MRWTO encoding for Pseudo-Boolean Constraints
c sizeMax=2508
c No.0 Divisor=14	generated by pow1
c No.1 Divisor=14	generated by pow1
c No.2 Divisor=14	generated by pow1
c p0= 14	p1= 14	p2= 14	
c number of digits = 4
c linkingVar[0].size = 14, linkingVar[1].size = 14, linkingVar[2].size = 13, linkingVar[3].size = 1, 
c Pseudo-Boolean Constraints: 28967 variables and 319308 clauses
c Sum of weights = 236682
c A number of soft clauses remained = 1204
c MRWTO encoding for Pseudo-Boolean Constraints
c sizeMax=2508
c No.0 Divisor=14	generated by pow1
c No.1 Divisor=14	generated by pow1
c No.2 Divisor=14	generated by pow1
c p0= 14	p1= 14	p2= 14	
c number of digits = 4
c linkingVar[0].size = 14, linkingVar[1].size = 14, linkingVar[2].size = 13, linkingVar[3].size = 1, 
c Pseudo-Boolean Constraints: 28967 variables and 319308 clauses
c Sum of weights = 236682
c A number of soft clauses remained = 1204
c MRWTO encoding for Pseudo-Boolean Constraints
c sizeMax=2508
c No.0 Divisor=14	generated by pow1
c No.1 Divisor=14	generated by pow1
c No.2 Divisor=14	generated by pow1
c p0= 14	p1= 14	p2= 14	
c number of digits = 4
c linkingVar[0].size = 14, linkingVar[1].size = 14, linkingVar[2].size = 13, linkingVar[3].size = 1, 
c Pseudo-Boolean Constraints: 28967 variables and 319308 clauses
c Sum of weights = 236682
c A number of soft clauses remained = 1204
c MRWTO encoding for Pseudo-Boolean Constraints
c sizeMax=2508
c No.0 Divisor=14	generated by pow1
c No.1 Divisor=14	generated by pow1
c No.2 Divisor=14	generated by pow1
c p0= 14	p1= 14	p2= 14	
c number of digits = 4
c linkingVar[0].size = 14, linkingVar[1].size = 14, linkingVar[2].size = 13, linkingVar[3].size = 1, 
c Pseudo-Boolean Constraints: 28967 variables and 319308 clauses
c Sum of weights = 236682
c A number of soft clauses remained = 1204
c MRWTO encoding for Pseudo-Boolean Constraints
c sizeMax=2508
c No.0 Divisor=14	generated by pow1
c No.1 Divisor=14	generated by pow1
c No.2 Divisor=14	generated by pow1
c p0= 14	p1= 14	p2= 14	
c number of digits = 4
c linkingVar[0].size = 14, linkingVar[1].size = 14, linkingVar[2].size = 13, linkingVar[3].size = 1, 
c Pseudo-Boolean Constraints: 28967 variables and 319308 clauses
c Sum of weights = 236682
c A number of soft clauses remained = 1204
c MRWTO encoding for Pseudo-Boolean Constraints
c sizeMax=2508
c No.0 Divisor=14	generated by pow1
c No.1 Divisor=14	generated by pow1
c No.2 Divisor=14	generated by pow1
c p0= 14	p1= 14	p2= 14	
c number of digits = 4
c linkingVar[0].size = 14, linkingVar[1].size = 14, linkingVar[2].size = 13, linkingVar[3].size = 1, 
c Pseudo-Boolean Constraints: 28967 variables and 319308 clauses
c last restart ## conflicts  :  367 5513 
o 2396 | cpuTime 0.731599 s
c last restart ## conflicts  :  9 3189 
o 1661 | cpuTime 0.772227 s
c last restart ## conflicts  :  290 5239 
o 1367 | cpuTime 0.95319 s
c last restart ## conflicts  :  194 3550 
o 1252 | cpuTime 1.96507 s
c last restart ## conflicts  :  484 4066 
o 1233 | cpuTime 2.91761 s
c last restart ## conflicts  :  577 4364 
o 1215 | cpuTime 3.75351 s
c last restart ## conflicts  :  136 3089 
o 1191 | cpuTime 4.22192 s
c last restart ## conflicts  :  578 2821 
o 1129 | cpuTime 4.71162 s
c last restart ## conflicts  :  228 3903 
o 1110 | cpuTime 5.66101 s
c last restart ## conflicts  :  257 4041 
o 1076 | cpuTime 6.97132 s
c last restart ## conflicts  :  434 4627 
o 1051 | cpuTime 8.45891 s
c last restart ## conflicts  :  260 2893 
o 1017 | cpuTime 16.157 s
c last restart ## conflicts  :  190 2352 
o 1011 | cpuTime 19.599 s
c last restart ## conflicts  :  236 2839 
o 988 | cpuTime 63.0552 s
c last restart ## conflicts  :  700 2494 
o 945 | cpuTime 64.4191 s
c last restart ## conflicts  :  660 2052 
o 925 | cpuTime 76.5875 s
c last restart ## conflicts  :  345 3082 
o 920 | cpuTime 183.959 s
c last restart ## conflicts  :  387 2983 
o 845 | cpuTime 184.592 s
c last restart ## conflicts  :  156 2491 
o 821 | cpuTime 1321.01 s
c last restart ## conflicts  :  85 1923 
o 819 | cpuTime 1520.67 s
c last restart ## conflicts  :  1478 3388 
o 810 | cpuTime 1780.43 s
c last restart ## conflicts  :  83 3776 
o 802 | cpuTime 2797.41 s
c last restart ## conflicts  :  38 2632 
o 779 | cpuTime 2797.49 s
s UNKNOWN
c Search is stopped by a limit (maybe time-limit)
cr positiVarArr: [ | 25(1->18) | 45(1->2) | 98(1->19) | 140(1->25) | 168(1->17) | 213(1->26) | 229(1->6) | 288(1->29) | 308(2->13) | 330(3->1) | 388(4->21) | 415(5->12) | 448(6->9) | 498(7->23) | 531(8->20) | 552(9->5) | 577(10->1) | 635(11->16) | 652(12->1) | 699(13->8) | 731(14->4) | 785(15->22) | 823(16->24) | 862(17->27) | 872(18->1) | 922(19->15) | 953(20->10) | 977(21->1) | 1029(22->14) | 1079(23->28) | 1083(24->1) | 1130(25->7) | 1162(26->3) | 1190(27->1) | 1231(28->1) | 1278(29->11) | ]
cr the 1-th chain: [ 1->18->1 ] (#non-depot=1) {#cumul.=2}
cr the 2-th chain: [ 1->2->13->8->20->10->1 ] (#non-depot=5) {#cumul.=7}
cr the 3-th chain: [ 1->19->15->22->14->4->21->1 ] (#non-depot=6) {#cumul.=13}
cr the 4-th chain: [ 1->25->7->23->28->1 ] (#non-depot=4) {#cumul.=17}
cr the 5-th chain: [ 1->17->27->1 ] (#non-depot=2) {#cumul.=19}
cr the 6-th chain: [ 1->26->3->1 ] (#non-depot=2) {#cumul.=21}
cr the 7-th chain: [ 1->6->9->5->12->1 ] (#non-depot=4) {#cumul.=25}
cr the 8-th chain: [ 1->29->11->16->24->1 ] (#non-depot=4) {#cumul.=29}
c Latest Answer = 0 by 24 loops
c restarts              : 47397
c conflicts             : 18342912       (5100 /sec)
c decisions             : 66497666       (0.00 % random) (18487 /sec)
c propagations          : 29584161719    (8224783 /sec)
c conflict literals     : 1248482028     (41.49 % deleted)
c Memory used           : 604.00 MB
c CPU time              : 3596.95 s
